NAME          OrnekMPS

OBJSENSE
 MAX
ROWS
 N  PARA
 L  LIM1
 G  LIM2
COLUMNS
    X1           LIM1               2.0   PARA               3.0
	X1			LIM2 3.0	
    X2        PARA               2.0   LIM1               1.0
	X2		LIM2  4.0		
RHS
    RHS1      LIM1               2.0		LIM2	12.0
ENDATA
